[2026-03-24T00:33:27.045Z] Pipeline "set_set_set_s002_g008" → 2026_03_24_00_33_26_set_set_set_s002_g008_max.sol
Set parameter WLSAccessID
Set parameter WLSSecret
Set parameter LicenseID to value 2792458
Set parameter LogFile to value "gurobi.log"
Using license file /root/gurobi.lic
Academic license 2792458 - for non-commercial use only - registered to an___@studenti.unipg.it

Gurobi Optimizer version 13.0.1 build v13.0.1rc0 (linux64 - "Ubuntu 24.04.4 LTS")
Copyright (c) 2026, Gurobi Optimization, LLC

Warning: Duplicate section found (read 'binary') - Is a variable name equal to an LP file format keyword?
Warning: Duplicate section found (read 'binary') - Is a variable name equal to an LP file format keyword?
Warning: Duplicate section found (read 'binary') - Is a variable name equal to an LP file format keyword?
Warning: Duplicate section found (read 'binary') - Is a variable name equal to an LP file format keyword?
Warning: Duplicate section found (read 'binary') - Is a variable name equal to an LP file format keyword?
Warning: Duplicate section found (read 'binary') - Is a variable name equal to an LP file format keyword?
Warning: Duplicate section found (read 'binary') - Is a variable name equal to an LP file format keyword?
Warning: Duplicate section found (read 'binary') - Is a variable name equal to an LP file format keyword?
Warning: Duplicate section found (read 'binary') - Is a variable name equal to an LP file format keyword?
Warning: Duplicate section found (read 'binary') - Is a variable name equal to an LP file format keyword?
Warning: Further warnings of this type will be omitted.
Read LP format model from file /root/bgw/data/uploads/2026_03_24_00_33_26_set_set_set_s002_g008_max.lp
Reading time = 0.00 seconds
: 314 rows, 70 columns, 800 nonzeros

Using Gurobi shared library /opt/gurobi1301/linux64/lib/libgurobi.so.13.0.1

CPU model: AMD EPYC-Genoa Processor, instruction set [SSE2|AVX|AVX2|AVX512]
Thread count: 16 physical cores, 16 logical processors, using up to 16 threads

Academic license 2792458 - for non-commercial use only - registered to an___@studenti.unipg.it
Optimize a model with 314 rows, 70 columns and 800 nonzeros (Max)
Model fingerprint: 0x81ce7ff2
Model has 21 linear objective coefficients
Variable types: 28 continuous, 42 integer (42 binary)
Coefficient statistics:
  Matrix range     [1e+00, 8e+00]
  Objective range  [1e+00, 1e+00]
  Bounds range     [1e+00, 1e+00]
  RHS range        [1e+00, 9e+00]

Found heuristic solution: objective 21.0000000
Presolve removed 207 rows and 27 columns
Presolve time: 0.00s
Presolved: 107 rows, 43 columns, 349 nonzeros
Variable types: 0 continuous, 43 integer (36 binary)
Found heuristic solution: objective 52.0000000

Root relaxation: objective 1.090000e+02, 42 iterations, 0.00 seconds (0.00 work units)

    Nodes    |    Current Node    |     Objective Bounds      |     Work
 Expl Unexpl |  Obj  Depth IntInf | Incumbent    BestBd   Gap | It/Node Time

     0     0  109.00000    0   25   52.00000  109.00000   110%     -    0s
H    0     0                      53.0000000  109.00000   106%     -    0s
H    0     0                      55.0000000  109.00000  98.2%     -    0s
     0     0  109.00000    0   25   55.00000  109.00000  98.2%     -    0s
     0     0  109.00000    0   26   55.00000  109.00000  98.2%     -    0s
     0     0  109.00000    0   16   55.00000  109.00000  98.2%     -    0s
H    0     0                      58.0000000  109.00000  87.9%     -    0s
     0     0  108.73333    0   18   58.00000  108.73333  87.5%     -    0s
     0     0  108.73333    0   17   58.00000  108.73333  87.5%     -    0s
     0     0  108.23333    0   17   58.00000  108.23333  86.6%     -    0s
     0     0  108.00000    0   27   58.00000  108.00000  86.2%     -    0s
     0     0  108.00000    0   16   58.00000  108.00000  86.2%     -    0s
     0     0  107.00000    0   24   58.00000  107.00000  84.5%     -    0s
     0     0  107.00000    0   24   58.00000  107.00000  84.5%     -    0s
     0     0  106.00000    0   23   58.00000  106.00000  82.8%     -    0s
     0     0  106.00000    0   23   58.00000  106.00000  82.8%     -    0s
     0     0  106.00000    0   23   58.00000  106.00000  82.8%     -    0s
     0     0  106.00000    0   16   58.00000  106.00000  82.8%     -    0s
     0     2  106.00000    0   16   58.00000  106.00000  82.8%     -    0s

Cutting planes:
  Gomory: 14
  Cover: 21
  MIR: 1
  Inf proof: 23
  Zero half: 2

Explored 3801 nodes (20193 simplex iterations) in 0.17 seconds (0.06 work units)
Thread count was 16 (of 16 available processors)

Solution count 5: 58 55 53 ... 21

Optimal solution found (tolerance 1.00e-04)
Best objective 5.800000000000e+01, best bound 5.800000000000e+01, gap 0.0000%

Wrote result file '/root/bgw/data/results/2026_03_24_00_33_26_set_set_set_s002_g008_max.sol'

